# LAMMPS input script for FCC Argon crystal

units           metal
dimension       3
boundary        p p p
atom_style      atomic

read_data       structure_fcc.data

pair_style      lj/cut 12.0
pair_coeff      1 1 0.0103 3.405  # Argon LJ parameters

neighbor        2.0 bin
neigh_modify    delay 0 every 1 check yes

# Start with low temperature to avoid instability
velocity        all create 50.0 12345 dist gaussian

# Gentle equilibration
fix             1 all nvt temp 50.0 300.0 1.0
timestep        0.001

thermo_style    custom step temp pe ke etotal press vol density
thermo          50

dump            1 all atom 100 trajectory_fcc.lammpstrj

# Gradual heating and equilibration
run             1000

print          "FCC Argon simulation completed!"
