# LAMMPS input script for Argon system with n2p2 neural network potential

units           metal
dimension       3
boundary        p p p
atom_style      atomic

read_data       structure.data

pair_style      hdnnp
pair_coeff      * * input.nn Ar

neighbor        2.0 bin
neigh_modify    delay 0 every 1 check yes

velocity        all create 300.0 12345 dist gaussian

fix             1 all nvt temp 300.0 300.0 0.1
timestep        0.001

thermo_style    custom step temp pe ke etotal press vol
thermo          100

dump            1 all atom 1000 trajectory.lammpstrj

run             10000

print          "Simulation completed!"
